benchmark/results/graph__10-1000-0.10-02_17/graph__10-1000-0.10-02_17_Quinton_Benders_sub.lp
\ This file has been generated by DOcplex
\ ENCODING=ISO-8859-1
\Problem name: Quinton Benders_dual_sub

Minimize
 obj: 0.001251564456 pi_nr_a0 + 0.000901713255 pi_nr_a1
      + 0.001096491228 pi_nr_a2 + 0.000887311446 pi_nr_a3
      + 0.000864304235 pi_nr_a4 + 0.000856898029 pi_nr_a5
      + 0.002364066194 pi_nr_a6 + 0.000888099467 pi_nr_a7
      + 0.000865051903 pi_nr_a8 + 0.001221001221 pi_nr_a9 + pi_p_a2_a1
      + pi_p_a0_a4 + pi_p_a5_a2 + pi_p_a5_a7 + pi_p_a8_a6 + pi_p_a5_a6
      + pi_d_a0_a1_proc_0 + pi_d_a2_a0_proc_0 + 2386 pi_d_a0_a4_proc_0
      + pi_d_a4_a0_proc_0 + 2386 pi_d_a0_a5_proc_0 + pi_d_a5_a0_proc_0
      + pi_d_a6_a0_proc_0 + pi_d_a8_a0_proc_0 + 2386 pi_d_a0_a9_proc_0
      + pi_d_a9_a0_proc_0 + pi_d_a2_a1_proc_0 + 2386 pi_d_a1_a3_proc_1
      + pi_d_a3_a1_proc_1 + 2386 pi_d_a1_a4_proc_1 + 2386 pi_d_a1_a4_proc_0
      + pi_d_a4_a1_proc_1 + pi_d_a4_a1_proc_0 + 2386 pi_d_a1_a5_proc_1
      + 2386 pi_d_a1_a5_proc_0 + pi_d_a5_a1_proc_1 + pi_d_a5_a1_proc_0
      + 2386 pi_d_a1_a6_proc_1 + 2387 pi_d_a6_a1_proc_1 + pi_d_a6_a1_proc_0
      + 2386 pi_d_a1_a7_proc_1 + pi_d_a7_a1_proc_1 + 2386 pi_d_a1_a8_proc_1
      + 2387 pi_d_a8_a1_proc_1 + pi_d_a8_a1_proc_0 + 2386 pi_d_a1_a9_proc_1
      + 2386 pi_d_a1_a9_proc_0 + pi_d_a9_a1_proc_1 + pi_d_a9_a1_proc_0
      + 2387 pi_d_a2_a4_proc_0 + 2387 pi_d_a2_a5_proc_0 + pi_d_a2_a6_proc_0
      + pi_d_a2_a8_proc_0 + 2387 pi_d_a2_a9_proc_0 + pi_d_a3_a4_proc_1
      + pi_d_a3_a5_proc_1 + 2386 pi_d_a3_a6_proc_1 + pi_d_a6_a3_proc_1
      + pi_d_a3_a7_proc_1 + 2387 pi_d_a3_a8_proc_1 + pi_d_a3_a9_proc_1
      + 2386 pi_d_a4_a5_proc_0 + pi_d_a5_a4_proc_1 + 2387 pi_d_a5_a4_proc_0
      + 2386 pi_d_a4_a6_proc_1 + 2386 pi_d_a4_a6_proc_0 + pi_d_a6_a4_proc_1
      + pi_d_a6_a4_proc_0 + pi_d_a4_a7_proc_1 + 2386 pi_d_a4_a8_proc_1
      + 2386 pi_d_a4_a8_proc_0 + pi_d_a8_a4_proc_1 + pi_d_a8_a4_proc_0
      + pi_d_a4_a9_proc_1 + 2387 pi_d_a4_a9_proc_0 + 2386 pi_d_a9_a4_proc_0
      + 2386 pi_d_a5_a6_proc_1 + 2386 pi_d_a5_a6_proc_0 + pi_d_a6_a5_proc_1
      + pi_d_a6_a5_proc_0 + pi_d_a5_a7_proc_1 + 2387 pi_d_a5_a8_proc_1
      + 2387 pi_d_a5_a8_proc_0 + pi_d_a5_a9_proc_1 + 2387 pi_d_a5_a9_proc_0
      + 2386 pi_d_a9_a5_proc_0 + 2387 pi_d_a6_a7_proc_1 + 2387 pi_d_a6_a8_proc_1
      + pi_d_a6_a8_proc_0 + 2386 pi_d_a8_a6_proc_1 + 2387 pi_d_a6_a9_proc_1
      + 2387 pi_d_a6_a9_proc_0 + 2386 pi_d_a7_a8_proc_1 + pi_d_a8_a7_proc_1
      + pi_d_a9_a7_proc_1 + 2387 pi_d_a8_a9_proc_1 + 2387 pi_d_a8_a9_proc_0
      + pi_y2_a0_proc_0 + pi_y2_a1_proc_0 + pi_y2_a2_proc_0 + pi_y2_a3_proc_1
      + pi_y2_a4_proc_1 + pi_y2_a5_proc_1 + pi_y2_a6_proc_0 + pi_y2_a7_proc_1
      + pi_y2_a8_proc_0 + pi_y2_a9_proc_1
Subject To
 c1: pi_nr_a0 + pi_nr_a1 + pi_nr_a2 + pi_nr_a3 + pi_nr_a4 + pi_nr_a5 + pi_nr_a6
     + pi_nr_a7 + pi_nr_a8 + pi_nr_a9 - pi_y1_a0 - pi_y1_a1 - pi_y1_a2
     - pi_y1_a3 - pi_y1_a4 - pi_y1_a5 - pi_y1_a6 - pi_y1_a7 - pi_y1_a8
     - pi_y1_a9 >= 1
 c2: - pi_p_a1_a0 + pi_p_a0_a4 + pi_d_a0_a1_proc_0 - pi_d_a1_a0_proc_0
     + pi_d_a0_a2_proc_0 - pi_d_a2_a0_proc_0 + pi_d_a0_a4_proc_0
     - pi_d_a4_a0_proc_0 + pi_d_a0_a5_proc_0 - pi_d_a5_a0_proc_0
     + pi_d_a0_a6_proc_0 - pi_d_a6_a0_proc_0 + pi_d_a0_a8_proc_0
     - pi_d_a8_a0_proc_0 + pi_d_a0_a9_proc_0 - pi_d_a9_a0_proc_0 >= 0
 c3: 799 pi_p_a0_a4 + 799 pi_d_a0_a1_proc_0 + 799 pi_d_a0_a2_proc_0
     + 799 pi_d_a0_a4_proc_0 + 799 pi_d_a0_a5_proc_0 + 799 pi_d_a0_a6_proc_0
     + 799 pi_d_a0_a8_proc_0 + 799 pi_d_a0_a9_proc_0 + pi_y1_a0
     + pi_y2_a0_proc_0 >= 0
 c4: pi_p_a1_a0 - pi_p_a2_a1 - pi_d_a0_a1_proc_0 + pi_d_a1_a0_proc_0
     + pi_d_a1_a2_proc_0 - pi_d_a2_a1_proc_0 + pi_d_a1_a3_proc_1
     - pi_d_a3_a1_proc_1 + pi_d_a1_a4_proc_1 + pi_d_a1_a4_proc_0
     - pi_d_a4_a1_proc_1 - pi_d_a4_a1_proc_0 + pi_d_a1_a5_proc_1
     + pi_d_a1_a5_proc_0 - pi_d_a5_a1_proc_1 - pi_d_a5_a1_proc_0
     + pi_d_a1_a6_proc_1 + pi_d_a1_a6_proc_0 - pi_d_a6_a1_proc_1
     - pi_d_a6_a1_proc_0 + pi_d_a1_a7_proc_1 - pi_d_a7_a1_proc_1
     + pi_d_a1_a8_proc_1 + pi_d_a1_a8_proc_0 - pi_d_a8_a1_proc_1
     - pi_d_a8_a1_proc_0 + pi_d_a1_a9_proc_1 + pi_d_a1_a9_proc_0
     - pi_d_a9_a1_proc_1 - pi_d_a9_a1_proc_0 >= 0
 c5: 1109 pi_p_a1_a0 + 1109 pi_d_a1_a0_proc_0 + 1109 pi_d_a1_a2_proc_0
     + 1109 pi_d_a1_a4_proc_0 + 1109 pi_d_a1_a5_proc_0 + 1109 pi_d_a1_a6_proc_0
     + 1109 pi_d_a1_a8_proc_0 + 1109 pi_d_a1_a9_proc_0 + pi_y1_a1
     + pi_y2_a1_proc_0 >= 0
 c6: 1141 pi_p_a1_a0 + 1141 pi_d_a1_a3_proc_1 + 1141 pi_d_a1_a4_proc_1
     + 1141 pi_d_a1_a5_proc_1 + 1141 pi_d_a1_a6_proc_1 + 1141 pi_d_a1_a7_proc_1
     + 1141 pi_d_a1_a8_proc_1 + 1141 pi_d_a1_a9_proc_1 + pi_y1_a1
     + pi_y2_a1_proc_1 >= 0
 c7: pi_p_a2_a1 - pi_p_a3_a2 - pi_p_a5_a2 - pi_p_a6_a2 - pi_d_a0_a2_proc_0
     + pi_d_a2_a0_proc_0 - pi_d_a1_a2_proc_0 + pi_d_a2_a1_proc_0
     + pi_d_a2_a4_proc_0 - pi_d_a4_a2_proc_0 + pi_d_a2_a5_proc_0
     - pi_d_a5_a2_proc_0 + pi_d_a2_a6_proc_0 - pi_d_a6_a2_proc_0
     + pi_d_a2_a8_proc_0 - pi_d_a8_a2_proc_0 + pi_d_a2_a9_proc_0
     - pi_d_a9_a2_proc_0 >= 0
 c8: 912 pi_p_a2_a1 + 912 pi_d_a2_a0_proc_0 + 912 pi_d_a2_a1_proc_0
     + 912 pi_d_a2_a4_proc_0 + 912 pi_d_a2_a5_proc_0 + 912 pi_d_a2_a6_proc_0
     + 912 pi_d_a2_a8_proc_0 + 912 pi_d_a2_a9_proc_0 + pi_y1_a2
     + pi_y2_a2_proc_0 >= 0
 c9: pi_p_a3_a2 - pi_d_a1_a3_proc_1 + pi_d_a3_a1_proc_1 + pi_d_a3_a4_proc_1
     - pi_d_a4_a3_proc_1 + pi_d_a3_a5_proc_1 - pi_d_a5_a3_proc_1
     + pi_d_a3_a6_proc_1 - pi_d_a6_a3_proc_1 + pi_d_a3_a7_proc_1
     - pi_d_a7_a3_proc_1 + pi_d_a3_a8_proc_1 - pi_d_a8_a3_proc_1
     + pi_d_a3_a9_proc_1 - pi_d_a9_a3_proc_1 >= 0
 c10: 1127 pi_p_a3_a2 + 1127 pi_d_a3_a1_proc_1 + 1127 pi_d_a3_a4_proc_1
      + 1127 pi_d_a3_a5_proc_1 + 1127 pi_d_a3_a6_proc_1 + 1127 pi_d_a3_a7_proc_1
      + 1127 pi_d_a3_a8_proc_1 + 1127 pi_d_a3_a9_proc_1 + pi_y1_a3
      + pi_y2_a3_proc_1 >= 0
 c11: - pi_p_a0_a4 + pi_p_a4_a8 - pi_p_a9_a4 - pi_d_a0_a4_proc_0
      + pi_d_a4_a0_proc_0 - pi_d_a1_a4_proc_1 - pi_d_a1_a4_proc_0
      + pi_d_a4_a1_proc_1 + pi_d_a4_a1_proc_0 - pi_d_a2_a4_proc_0
      + pi_d_a4_a2_proc_0 - pi_d_a3_a4_proc_1 + pi_d_a4_a3_proc_1
      + pi_d_a4_a5_proc_1 + pi_d_a4_a5_proc_0 - pi_d_a5_a4_proc_1
      - pi_d_a5_a4_proc_0 + pi_d_a4_a6_proc_1 + pi_d_a4_a6_proc_0
      - pi_d_a6_a4_proc_1 - pi_d_a6_a4_proc_0 + pi_d_a4_a7_proc_1
      - pi_d_a7_a4_proc_1 + pi_d_a4_a8_proc_1 + pi_d_a4_a8_proc_0
      - pi_d_a8_a4_proc_1 - pi_d_a8_a4_proc_0 + pi_d_a4_a9_proc_1
      + pi_d_a4_a9_proc_0 - pi_d_a9_a4_proc_1 - pi_d_a9_a4_proc_0 >= 0
 c12: 901 pi_p_a4_a8 + 901 pi_d_a4_a0_proc_0 + 901 pi_d_a4_a1_proc_0
      + 901 pi_d_a4_a2_proc_0 + 901 pi_d_a4_a5_proc_0 + 901 pi_d_a4_a6_proc_0
      + 901 pi_d_a4_a8_proc_0 + 901 pi_d_a4_a9_proc_0 + pi_y1_a4
      + pi_y2_a4_proc_0 >= 0
 c13: 1157 pi_p_a4_a8 + 1157 pi_d_a4_a1_proc_1 + 1157 pi_d_a4_a3_proc_1
      + 1157 pi_d_a4_a5_proc_1 + 1157 pi_d_a4_a6_proc_1 + 1157 pi_d_a4_a7_proc_1
      + 1157 pi_d_a4_a8_proc_1 + 1157 pi_d_a4_a9_proc_1 + pi_y1_a4
      + pi_y2_a4_proc_1 >= 0
 c14: pi_p_a5_a2 + pi_p_a5_a7 + pi_p_a5_a6 - pi_p_a8_a5 - pi_d_a0_a5_proc_0
      + pi_d_a5_a0_proc_0 - pi_d_a1_a5_proc_1 - pi_d_a1_a5_proc_0
      + pi_d_a5_a1_proc_1 + pi_d_a5_a1_proc_0 - pi_d_a2_a5_proc_0
      + pi_d_a5_a2_proc_0 - pi_d_a3_a5_proc_1 + pi_d_a5_a3_proc_1
      - pi_d_a4_a5_proc_1 - pi_d_a4_a5_proc_0 + pi_d_a5_a4_proc_1
      + pi_d_a5_a4_proc_0 + pi_d_a5_a6_proc_1 + pi_d_a5_a6_proc_0
      - pi_d_a6_a5_proc_1 - pi_d_a6_a5_proc_0 + pi_d_a5_a7_proc_1
      - pi_d_a7_a5_proc_1 + pi_d_a5_a8_proc_1 + pi_d_a5_a8_proc_0
      - pi_d_a8_a5_proc_1 - pi_d_a8_a5_proc_0 + pi_d_a5_a9_proc_1
      + pi_d_a5_a9_proc_0 - pi_d_a9_a5_proc_1 - pi_d_a9_a5_proc_0 >= 0
 c15: 932 pi_p_a5_a2 + 932 pi_p_a5_a7 + 932 pi_p_a5_a6 + 932 pi_d_a5_a0_proc_0
      + 932 pi_d_a5_a1_proc_0 + 932 pi_d_a5_a2_proc_0 + 932 pi_d_a5_a4_proc_0
      + 932 pi_d_a5_a6_proc_0 + 932 pi_d_a5_a8_proc_0 + 932 pi_d_a5_a9_proc_0
      + pi_y1_a5 + pi_y2_a5_proc_0 >= 0
 c16: 1167 pi_p_a5_a2 + 1167 pi_p_a5_a7 + 1167 pi_p_a5_a6
      + 1167 pi_d_a5_a1_proc_1 + 1167 pi_d_a5_a3_proc_1 + 1167 pi_d_a5_a4_proc_1
      + 1167 pi_d_a5_a6_proc_1 + 1167 pi_d_a5_a7_proc_1 + 1167 pi_d_a5_a8_proc_1
      + 1167 pi_d_a5_a9_proc_1 + pi_y1_a5 + pi_y2_a5_proc_1 >= 0
 c17: pi_p_a6_a2 - pi_p_a8_a6 - pi_p_a5_a6 - pi_d_a0_a6_proc_0
      + pi_d_a6_a0_proc_0 - pi_d_a1_a6_proc_1 - pi_d_a1_a6_proc_0
      + pi_d_a6_a1_proc_1 + pi_d_a6_a1_proc_0 - pi_d_a2_a6_proc_0
      + pi_d_a6_a2_proc_0 - pi_d_a3_a6_proc_1 + pi_d_a6_a3_proc_1
      - pi_d_a4_a6_proc_1 - pi_d_a4_a6_proc_0 + pi_d_a6_a4_proc_1
      + pi_d_a6_a4_proc_0 - pi_d_a5_a6_proc_1 - pi_d_a5_a6_proc_0
      + pi_d_a6_a5_proc_1 + pi_d_a6_a5_proc_0 + pi_d_a6_a7_proc_1
      - pi_d_a7_a6_proc_1 + pi_d_a6_a8_proc_1 + pi_d_a6_a8_proc_0
      - pi_d_a8_a6_proc_1 - pi_d_a8_a6_proc_0 + pi_d_a6_a9_proc_1
      + pi_d_a6_a9_proc_0 - pi_d_a9_a6_proc_1 - pi_d_a9_a6_proc_0 >= 0
 c18: 423 pi_p_a6_a2 + 423 pi_d_a6_a0_proc_0 + 423 pi_d_a6_a1_proc_0
      + 423 pi_d_a6_a2_proc_0 + 423 pi_d_a6_a4_proc_0 + 423 pi_d_a6_a5_proc_0
      + 423 pi_d_a6_a8_proc_0 + 423 pi_d_a6_a9_proc_0 + pi_y1_a6
      + pi_y2_a6_proc_0 >= 0
 c19: 885 pi_p_a6_a2 + 885 pi_d_a6_a1_proc_1 + 885 pi_d_a6_a3_proc_1
      + 885 pi_d_a6_a4_proc_1 + 885 pi_d_a6_a5_proc_1 + 885 pi_d_a6_a7_proc_1
      + 885 pi_d_a6_a8_proc_1 + 885 pi_d_a6_a9_proc_1 + pi_y1_a6
      + pi_y2_a6_proc_1 >= 0
 c20: - pi_p_a5_a7 + pi_p_a7_a9 - pi_d_a1_a7_proc_1 + pi_d_a7_a1_proc_1
      - pi_d_a3_a7_proc_1 + pi_d_a7_a3_proc_1 - pi_d_a4_a7_proc_1
      + pi_d_a7_a4_proc_1 - pi_d_a5_a7_proc_1 + pi_d_a7_a5_proc_1
      - pi_d_a6_a7_proc_1 + pi_d_a7_a6_proc_1 + pi_d_a7_a8_proc_1
      - pi_d_a8_a7_proc_1 + pi_d_a7_a9_proc_1 - pi_d_a9_a7_proc_1 >= 0
 c21: 1126 pi_p_a7_a9 + 1126 pi_d_a7_a1_proc_1 + 1126 pi_d_a7_a3_proc_1
      + 1126 pi_d_a7_a4_proc_1 + 1126 pi_d_a7_a5_proc_1 + 1126 pi_d_a7_a6_proc_1
      + 1126 pi_d_a7_a8_proc_1 + 1126 pi_d_a7_a9_proc_1 + pi_y1_a7
      + pi_y2_a7_proc_1 >= 0
 c22: - pi_p_a4_a8 + pi_p_a8_a6 + pi_p_a8_a5 - pi_d_a0_a8_proc_0
      + pi_d_a8_a0_proc_0 - pi_d_a1_a8_proc_1 - pi_d_a1_a8_proc_0
      + pi_d_a8_a1_proc_1 + pi_d_a8_a1_proc_0 - pi_d_a2_a8_proc_0
      + pi_d_a8_a2_proc_0 - pi_d_a3_a8_proc_1 + pi_d_a8_a3_proc_1
      - pi_d_a4_a8_proc_1 - pi_d_a4_a8_proc_0 + pi_d_a8_a4_proc_1
      + pi_d_a8_a4_proc_0 - pi_d_a5_a8_proc_1 - pi_d_a5_a8_proc_0
      + pi_d_a8_a5_proc_1 + pi_d_a8_a5_proc_0 - pi_d_a6_a8_proc_1
      - pi_d_a6_a8_proc_0 + pi_d_a8_a6_proc_1 + pi_d_a8_a6_proc_0
      - pi_d_a7_a8_proc_1 + pi_d_a8_a7_proc_1 + pi_d_a8_a9_proc_1
      + pi_d_a8_a9_proc_0 - pi_d_a9_a8_proc_1 - pi_d_a9_a8_proc_0 >= 0
 c23: 1156 pi_p_a8_a6 + 1156 pi_p_a8_a5 + 1156 pi_d_a8_a0_proc_0
      + 1156 pi_d_a8_a1_proc_0 + 1156 pi_d_a8_a2_proc_0 + 1156 pi_d_a8_a4_proc_0
      + 1156 pi_d_a8_a5_proc_0 + 1156 pi_d_a8_a6_proc_0 + 1156 pi_d_a8_a9_proc_0
      + pi_y1_a8 + pi_y2_a8_proc_0 >= 0
 c24: 842 pi_p_a8_a6 + 842 pi_p_a8_a5 + 842 pi_d_a8_a1_proc_1
      + 842 pi_d_a8_a3_proc_1 + 842 pi_d_a8_a4_proc_1 + 842 pi_d_a8_a5_proc_1
      + 842 pi_d_a8_a6_proc_1 + 842 pi_d_a8_a7_proc_1 + 842 pi_d_a8_a9_proc_1
      + pi_y1_a8 + pi_y2_a8_proc_1 >= 0
 c25: pi_p_a9_a4 - pi_p_a7_a9 - pi_d_a0_a9_proc_0 + pi_d_a9_a0_proc_0
      - pi_d_a1_a9_proc_1 - pi_d_a1_a9_proc_0 + pi_d_a9_a1_proc_1
      + pi_d_a9_a1_proc_0 - pi_d_a2_a9_proc_0 + pi_d_a9_a2_proc_0
      - pi_d_a3_a9_proc_1 + pi_d_a9_a3_proc_1 - pi_d_a4_a9_proc_1
      - pi_d_a4_a9_proc_0 + pi_d_a9_a4_proc_1 + pi_d_a9_a4_proc_0
      - pi_d_a5_a9_proc_1 - pi_d_a5_a9_proc_0 + pi_d_a9_a5_proc_1
      + pi_d_a9_a5_proc_0 - pi_d_a6_a9_proc_1 - pi_d_a6_a9_proc_0
      + pi_d_a9_a6_proc_1 + pi_d_a9_a6_proc_0 - pi_d_a7_a9_proc_1
      + pi_d_a9_a7_proc_1 - pi_d_a8_a9_proc_1 - pi_d_a8_a9_proc_0
      + pi_d_a9_a8_proc_1 + pi_d_a9_a8_proc_0 >= 0
 c26: 1193 pi_p_a9_a4 + 1193 pi_d_a9_a0_proc_0 + 1193 pi_d_a9_a1_proc_0
      + 1193 pi_d_a9_a2_proc_0 + 1193 pi_d_a9_a4_proc_0 + 1193 pi_d_a9_a5_proc_0
      + 1193 pi_d_a9_a6_proc_0 + 1193 pi_d_a9_a8_proc_0 + pi_y1_a9
      + pi_y2_a9_proc_0 >= 0
 c27: 819 pi_p_a9_a4 + 819 pi_d_a9_a1_proc_1 + 819 pi_d_a9_a3_proc_1
      + 819 pi_d_a9_a4_proc_1 + 819 pi_d_a9_a5_proc_1 + 819 pi_d_a9_a6_proc_1
      + 819 pi_d_a9_a7_proc_1 + 819 pi_d_a9_a8_proc_1 + pi_y1_a9
      + pi_y2_a9_proc_1 >= 0

Bounds
       pi_y1_a0 Free
       pi_y1_a1 Free
       pi_y1_a2 Free
       pi_y1_a3 Free
       pi_y1_a4 Free
       pi_y1_a5 Free
       pi_y1_a6 Free
       pi_y1_a7 Free
       pi_y1_a8 Free
       pi_y1_a9 Free
End
