benchmark/results/graph__10-1000-0.10-02_17/graph__10-1000-0.10-02_17_Quinton_Benders_sub.txt
solution for: Quinton Benders_dual_sub
objective: 0.000152625
status: OPTIMAL_SOLUTION(2)
pi_p_a4_a8=0.000
pi_p_a8_a5=0.000
pi_d_a5_a3_proc_1=0.000
pi_d_a3_a7_proc_1=0.000
pi_d_a9_a4_proc_1=0.000
pi_d_a7_a9_proc_1=0.000
pi_y1_a3=-0.172
pi_y1_a4=-0.177
pi_y1_a5=-0.178
pi_y1_a7=-0.172
pi_y1_a8=-0.176
pi_y1_a9=-0.125
pi_y2_a4_proc_0=0.039
pi_y2_a5_proc_0=0.178
pi_y2_a8_proc_1=0.048
pi_y2_a9_proc_0=0.125
